c Lingeling SAT Solver
c 
c Version ala b02aa1a04343558c4252b5f4a723be021964f652
c 
c Copyright (C) 2010-2012 Armin Biere JKU Linz Austria.
c All rights reserved.
c 
c released Sat Oct 13 14:05:26 CEST 2012
c compiled Sat Feb 16 02:48:12 EST 2013
c 
c gcc (Debian 4.4.5-8) 4.4.5
c -Wall -O3 -DNLGLOG -DNDEBUG -DNCHKSOL -DNLGLPICOSAT 
c Linux greencar2 2.6.32-5-amd64 x86_64
c 
c reading input file pb_200_03.cnf
c no embedded options
c found 'p cnf 199970 613791' header
c read 199970 variables, 613791 clauses, 1275712 literals in 0.0 seconds
c
c feature vars 199970
c feature lits.total 1275712
c feature lits.pos 681626
c feature lits.neg 594086
c feature clauses.total 613791
c feature clauses.unit 75790
c feature clauses.bin 433081
c feature clauses.trn 103520
c feature clauses.lrg 1400
c feature cog.val.min 1
c feature cog.val.avg 89024
c feature cog.val.max 191261
c feature cog.var.min 1
c feature cog.var.avg 99986
c feature cog.var.max 199969
c
c
c --abstime=0
c --acts=2
c --actavgmax=120
c --actstdmin=20
c --actstdmax=80
c --agile=23
c --bias=2
c --block=1
c --blkrtc=0
c --blkclslim=2000
c --blkocclim=2000
c --blkmaxeff=2147483647
c --blkmineff=10000000
c --blkreleff=20
c --card=0
c --cce=3
c --ccemaxeff=100000000
c --ccemineff=5000000
c --ccereleff=3
c --check=0
c --cgrclsr=1
c --cgrmaxority=20
c --cgrmaxeff=8000000
c --cgrmineff=200000
c --cgreleff=1
c --cgrexteq=1
c --cgrextand=1
c --cgrextunits=1
c --cgrextite=1
c --cgrextxor=1
c --cliff=1
c --cliffreleff=8
c --cliffmineff=10000000
c --cliffmaxeff=100000000
c --compact=0
c --decompose=1
c --defragint=10000000
c --defragfree=50
c --elim=1
c --elmrtc=0
c --elmblk=1
c --elmclslim=1000
c --elmocclim=1000
c --elmaxeff=100000000
c --elmineff=5000000
c --elmreleff=10
c --sleeponabort=0
c --exitonabort=0
c --flipping=1
c --flipint=2
c --flipdur=50
c --fliptop=1
c --force=0
c --gauss=1
c --gaussextrall=1
c --gaussmaxor=20
c --gaussexptrn=1
c --gaussmaxeff=50000000
c --gaussmineff=2000000
c --gaussreleff=2
c --gluescale=2
c --gluekeep=0
c --inprocessing=1
c --cintinc=10000
c --irrlim=20
c --lift=1
c --lftmaxeff=20000000
c --lftmineff=500000
c --lftreleff=6
c --lhbr=1
c --lkhd=1
c --clim=-1
c --mocint=1000
c --move=2
c --log=-1
c --otfs=1
c --phase=0
c --phaseneginit=0
c --plain=0
c --probe=1
c --prbasicmaxeff=100000000
c --prbasicmineff=1000000
c --prbasicreleff=10
c --prbasic=1
c --prbasicroundlim=9
c --queuemergelim=10000
c --queuefactor=833
c --queueinc=20
c --rmincpen=4
c --seed=0
c --smallirr=90
c --smallve=1
c --smallvevars=12
c --randec=1
c --randecint=1000
c --redfixed=0
c --redlbound=0
c --redlexpfac=10
c --redldoutfac=0
c --redloutinc=10000
c --redlinit=1000
c --redlinc=1000
c --redinoutinc=100
c --redlmininc=10
c --redlmaxinc=200
c --redlminrel=10
c --redlmaxrel=300
c --redlminabs=500
c --redlmaxabs=1000000
c --reduce=1
c --restart=2
c --restartint=5
c --rstinoutinc=110
c --simplify=1
c --simpdelay=100
c --simpen=4
c --sizepen=1000000
c --sizemaxpen=3
c --sortlits=0
c --syncint=111111
c --termint=122222
c --ternres=1
c --ternresrtc=0
c --trnrmineff=4000000
c --trnrmaxeff=40000000
c --trnreleff=10
c --transred=1
c --trdmineff=100000
c --trdmaxeff=2000000
c --trdreleff=10
c --unhide=1
c --unhdextstamp=1
c --unhdhbr=0
c --unhdmaxeff=20000000
c --unhdmineff=1000000
c --unhdreleff=4
c --unhdlnpr=3
c --unhdroundlim=5
c --verbose=1
c --witness=1
c [limits] no conflict limit
c [limits] simplification delayed by 100 to 100 conflicts
c 
c  seconds         irredundant          redundant clauses agility   height
c          variables clauses conflicts large binary ternary    glue         MB
c 
c *    0.0  106920   443357         0       0      0     0  61  0.0   0.0   40
c [cut-width] 147193, max 235385, min4 88120 at 75%, min10 33947 at 88%
c [decision-order] bias 1, old 1
c [queue-schedule-all-variables]
c s    0.0  106920   443357         0       0      0     0  61  0.0   0.0   40
c [simplification-1] limit hit at 100 conflicts
c [simplification-1] simplification penalty of 4
c [ternres-1] limit 4000000 with penalty 0 = 0 + 0
c [ternres-1] all 106920 free variables schedulable
c [ternres-1] 2 ternary resolvents (0 bin, 2 trn)
c [ternres-1] fully completed ternary resolution
c T    0.2  106920   443357       100      95      2     5  15  5.6 144.7   43
c [gauss-1] limit 2000000 penalty 0 = 0 + 0
c [gauss-1] extracted 175463 xors of average arity 2.0
c [gauss-1] connected 350960 occurrences of 103102 variables (average 3.4)
c [gauss-1] limit 2000000 penalty 0 = 0 + 0
c d    0.8   48344   216091       100      95      2     5  15  5.6 144.7   19
c [gauss-1] exported 0 unary, 3 binary and 0 ternary equations
c G    0.8   48344   216091       100      95      2     5  15  5.6 144.7   19
c [basicprobe-1] limit 1000000 penalty 0 = 0 + 0
c [basicprobe-1-0] 4617 probes remain 10% after last round
c [basicprobe-1-0] 2 units = 2 failed (100%) + 0 lifted (0%)
c [basicprobe-1-0] removed 4 variables, found 1241 hbrs
c p    0.9   48340   216091       100      95   1243     5  15  5.6 144.7   23
c [cgrclsr-1] limit 200000 penalty 0 = 0 + 0
c [cgrclsr-1] all 48340 free variables schedulable
c [cgrclsr-1] fully completed congruence closure
c [lift-1] limit 500000 with penalty 0 = 0 + 0
c [lift-1] using 48340 probes 100%
c [lift-1] 48298 variables remain 100% (42 retained)
c [cliff-1] limit of 10000000 steps penalty 0 = 0 + 0
c [cliff-1] failed 4, lifted 0
c K    1.5   48317   216071       100      95   8488     5  15  5.6 144.7   23
c [unhide-1] limit 1000000 with penalty 0 = 0 + 0
c [unhide-1-1] 0 units, 0 failed, 17449 tauts, 0 hbrs, 121 literals
c u    1.6   48317   198508       100      93   8305     7  15  5.6 144.7   23
c [transred-1] limit 100000 with penalty 0 = 0 + 0
c [block-1] scheduling all variables this time
c [block-1] scheduled 48317 variables 100%
c [block-1] limit of 10000000 steps penalty 0 = 0 + 0
c [block-1] fully completed blocked clause elimination
c [block-1] transition to [ all 0 rem 0 ] state
c [block-1] eliminated 4600 blocked clauses
c k    1.8   48317   193908       100      93   8305  4607  15  5.6 144.7   19
c [cce-1] scheduling all variables this time
c [cce-1] limit of 10000000 steps penalty 0 = 0 + 0
c [cce-1] incomplete covered clause elimination 43534 not tried 90%
c [cce-1] transition to [ all 1 rem 1 ] state
c [cce-1] eliminated 170 covered clauses
c E    2.1   48284   193738       100      93  11357  4607  15  5.6 144.7   19
c [elim-1] scheduling all variables this time
c [elim-1] scheduled 48284 variables 100%
c [elim-1] limit of 5000000 steps penalty 0 = 0 + 0
c [elim-1] incomplete variable elimination 33444 not tried 69%
c [elim-1] transition to [ all 1 rem 1 ] state
c [elim-1] eliminated 6662 = 14% variables out of 48284
c e    3.1   41622   189620       100      66   4615   584  15  5.6 144.7   19
c [phase-1] phase bias: 1785 positive 15%, 10064 negative 85%
c [simplification-1] removed 65298 variables 61%
c [simplification-1] limit increments divided by 31
c [simplification-1] arithmetic increase of conflict limit interval by 322
c [simplification-1] new irredundant limit 1962110
c [simplification-1] new conflict limit 422
c [simplification-1] simplification penalty reduced to 3
c R    3.2   41622   189620       164     119   4618   590  12  6.0 134.6   23
c R    3.2   41622   189620       408     308   4635   622   8  5.4 126.3   23
c [simplification-2] limit hit at 423 conflicts
c [simplification-2] simplification penalty of 3
c [ternres-2] limit 4000000 with penalty 0 = 0 + 0
c [ternres-2] all 41622 free variables schedulable
c [ternres-2] 62 ternary resolvents (1 bin, 61 trn)
c [ternres-2] fully completed ternary resolution
c T    3.3   41622   189620       423     315   4641   686   8  5.2 124.4   23
c [gauss-2] limit 2000000 penalty 0 = 0 + 0
c [gauss-2] extracted 1278 xors of average arity 3.0
c [gauss-2] connected 3830 occurrences of 1687 variables (average 2.3)
c [gauss-2] limit 2000000 penalty 0 = 0 + 0
c [gauss-2] fully completed
c [gauss-2] exported 0 unary, 0 binary and 0 ternary equations
c G    3.4   41622   189620       423     315   4641   686   8  5.2 124.4   19
c [basicprobe-2] limit 1000000 penalty 0 = 0 + 0
c [basicprobe-2-0] 4935 probes remain 12% after last round
c [basicprobe-2-0] 1 units = 1 failed (100%) + 0 lifted (0%)
c [basicprobe-2-0] removed 1 variables, found 1144 hbrs
c p    3.5   41621   189620       423     315   5785   685   8  5.2 124.4   23
c [cgrclsr-2] limit 100000 penalty 1 = 1 + 0
c [cgrclsr-2] all 41621 free variables schedulable
c [cgrclsr-2] fully completed congruence closure
c [lift-2] limit 250000 with penalty 1 = 1 + 0
c [lift-2] using 41583 probes 100%
c [lift-2] 41560 variables remain 100% (61 retained)
c [cliff-2] limit of 10000000 steps penalty 0 = 0 + 0
c [cliff-2] failed 1, lifted 0
c K    4.1   41620   189614       423     315   6443   685   8  5.2 124.4   23
c [unhide-2] limit 1000000 with penalty 0 = 0 + 0
c [unhide-2-3] 0 units, 2 failed, 3047 tauts, 0 hbrs, 274 literals
c u    4.3   41619   188704       423     311   4252   669   8  5.2 124.4   19
c [transred-3] limit 59097 based on 472779 irredundant literals
c [block-2] scheduling all variables this time
c [block-2] scheduled 41619 variables 100%
c [block-2] limit of 10000000 steps penalty 0 = 0 + 0
c [block-2] fully completed blocked clause elimination
c [block-2] transition to [ all 0 rem 0 ] state
c [block-2] eliminated 0 blocked clauses
c [cce-2] 39109 variables 94% will be scheduled this time
c [cce-2] limit of 10000000 steps penalty 0 = 0 + 0
c [cce-2] 38517 variables 93% remain to be tried next time
c [cce-2] transition to [ all 0 rem 1 ] state
c [cce-2] eliminated 358 covered clauses
c E    4.8   41615   188341       423     311   4894   669   8  5.2 124.4   19
c [elim-2] 33369 variables 80% will be scheduled this time
c [elim-2] scheduled 33369 variables 80%
c [elim-2] limit of 5000000 steps penalty 0 = 0 + 0
c [elim-2] 23791 variables 57% remain to be tried next time
c [elim-2] transition to [ all 0 rem 1 ] state
c [elim-2] eliminated 1054 = 3% variables out of 41615
c e    5.7   40561   188006       423     304   3444   666   8  5.2 124.4   19
c [phase-2] phase bias: 89 positive 78%, 25 negative 22%
c [simplification-2] removed 1061 variables 2%
c [simplification-2] limit increments divided by 2
c [simplification-2] arithmetic increase of conflict limit interval by 5000
c [simplification-2] new irredundant limit 1962110
c [simplification-2] new conflict limit 5745
c [simplification-2] simplification penalty reduced to 2
c R    6.0   40561   188006       981     787   3462   716   6  5.7 110.0   23
c -    6.1   40561   188006      1269     507   3472   758   5  5.4  94.9   23
c R    6.3   40561   188006      2277    1413   3502   823   7  6.0  94.5   24
c 
c  seconds         irredundant          redundant clauses agility   height
c          variables clauses conflicts large binary ternary    glue         MB
c 
c -    7.0   40561   188006      4208    1533   3589  1036  10  5.9  98.7   23
c R    7.2   40561   188006      5204    2466   3590  1075   4  9.4 118.7   24
c [simplification-3] limit hit at 5745 conflicts
c [simplification-3] simplification penalty of 2
c [ternres-3] limit 4000000 with penalty 0 = 0 + 0
c [ternres-3] all 40561 free variables schedulable
c [ternres-3] 264 ternary resolvents (1 bin, 263 trn)
c [ternres-3] fully completed ternary resolution
c T    7.4   40561   188006      5745    2922   3617  1390   6  9.2 113.8   25
c [gauss-3] limit 1000000 penalty 1 = 1 + 0
c [gauss-3] extracted 620 xors of average arity 3.0
c [gauss-3] connected 1855 occurrences of 1302 variables (average 1.4)
c [gauss-3] limit 1000000 penalty 1 = 1 + 0
c [gauss-3] fully completed
c [gauss-3] exported 0 unary, 0 binary and 0 ternary equations
c G    7.5   40561   188006      5745    2922   3617  1390   6  9.2 113.8   20
c d    7.6   40557   188006      5745    2922   3609  1388   6  9.2 113.8   20
c [basicprobe-3] limit 1000000 penalty 0 = 0 + 0
c [basicprobe-3-0] 4580 probes remain 11% after last round
c [basicprobe-3-0] removed 0 variables, found 472 hbrs
c p    7.7   40557   188006      5745    2922   4081  1380   6  9.2 113.8   24
c [cgrclsr-3] limit 59400 based on 475200 irredundant literals
c [cgrclsr-3] all 40557 free variables schedulable
c [cgrclsr-3] fully completed congruence closure
c [lift-3] limit 125000 with penalty 2 = 2 + 0
c [lift-3] using 40497 probes 100%
c [lift-3] 40489 variables remain 100% (68 retained)
c [cliff-3] limit of 10000000 steps penalty 0 = 0 + 0
c [cliff-3] failed 5, lifted 0
c K    8.2   40550   188006      5745    2922   4749  1372   6  9.2 113.8   24
c [unhide-3] limit 1000000 with penalty 0 = 0 + 0
c [unhide-3-5] 0 units, 0 failed, 1191 tauts, 0 hbrs, 5098 literals
c u    8.5   40550   187437      5745    2878   4119  1311   6  9.2 113.8   24
c [transred-5] limit 127792 with penalty 2 = 2 + 0
c t    8.5   40550   187434      5745    2878   4119  1311   6  9.2 113.8   24
c [block-3] scheduling all variables this time
c [block-3] scheduled 40550 variables 100%
c [block-3] limit of 5000000 steps penalty 1 = 1 + 0
c [block-3] fully completed blocked clause elimination
c [block-3] transition to [ all 0 rem 0 ] state
c [block-3] eliminated 0 blocked clauses
c [cce-3] scheduling all variables this time
c [cce-3] limit of 10000000 steps penalty 0 = 0 + 0
c [cce-3] 37133 variables 92% remain to be tried next time
c [cce-3] transition to [ all 1 rem 1 ] state
c [cce-3] eliminated 381 covered clauses
c E    9.0   40550   187053      5745    2878   4555  1305   6  9.2 113.8   20
c [elim-3] scheduling all variables this time
c [elim-3] scheduled 40550 variables 100%
c [elim-3] limit of 5000000 steps penalty 0 = 0 + 0
c [elim-3] 23756 variables 59% remain to be tried next time
c [elim-3] transition to [ all 1 rem 1 ] state
c [elim-3] eliminated 477 = 1% variables out of 40550
c e    9.9   40073   186614      5745    2845   4016  1296   6  9.2 113.8   20
c [phase-3] phase bias: 0 positive 0%, 0 negative 0%
c [simplification-3] removed 488 variables 1%
c [simplification-3] no reduction of limit increments
c [simplification-3] arithmetic increase of conflict limit interval by 10000
c [simplification-3] new irredundant limit 1962110
c [simplification-3] new conflict limit 21067
c [simplification-3] simplification penalty reduced to 1
c -   10.8   40073   186614      8244    2509   4117  1500   8  8.0 100.8   24
c R   11.6   40073   186614     11688    5750   4169  1636   7  8.4  96.8   25
c -   12.1   40073   186614     13107    3502   4221  1737   5  8.2  94.2   24
c -   14.0   40073   186614     19175    4589   4350  2047   6  8.2  85.4   24
c [simplification-4] limit hit at 21067 conflicts
c [simplification-4] simplification penalty of 1
c [ternres-4] limit 4000000 with penalty 0 = 0 + 0
c [ternres-4] all 40073 free variables schedulable
c [ternres-4] 229 ternary resolvents (3 bin, 226 trn)
c [ternres-4] fully completed ternary resolution
c T   14.7   40073   186614     21067    6390   4370  2338   4  8.0  83.0   25
c [gauss-4] limit 500000 penalty 2 = 2 + 0
c [gauss-4] extracted 310 xors of average arity 3.0
c [gauss-4] connected 923 occurrences of 784 variables (average 1.2)
c [gauss-4] limit 500000 penalty 2 = 2 + 0
c [gauss-4] fully completed
c [gauss-4] exported 0 unary, 0 binary and 0 ternary equations
c G   14.7   40073   186614     21067    6390   4370  2338   4  8.0  83.0   20
c d   14.8   40067   186614     21067    6390   4358  2336   4  8.0  83.0   20
c [basicprobe-4] limit 856378 penalty 1 = 1 + 0
c [basicprobe-4-0] 4198 probes remain 10% after last round
c [basicprobe-4-0] removed 0 variables, found 564 hbrs
c p   14.9   40067   186614     21067    6390   4922  2324   4  8.0  83.0   24
c [cgrclsr-4] limit 118288 based on 473154 irredundant literals
c [cgrclsr-4] all 40067 free variables schedulable
c [cgrclsr-4] fully completed congruence closure
c [lift-4] limit 128456 with penalty 3 = 3 + 0
c [lift-4] using 40000 probes 100%
c [lift-4] 39990 variables remain 100% (77 retained)
c [cliff-4] limit of 10000000 steps penalty 0 = 0 + 0
c [cliff-4] failed 3, lifted 0
c K   15.5   40052   186614     21067    6390   6252  2305   4  8.0  83.0   24
c [unhide-4] limit 1000000 with penalty 0 = 0 + 0
c [unhide-4-6] 0 units, 0 failed, 821 tauts, 0 hbrs, 6264 literals
c u   15.6   40052   186498     21067    6327   5719  2076   4  8.0  83.0   24
c [transred-7] limit 856378 with penalty 1 = 1 + 0
c t   15.7   40052   186490     21067    6327   5715  2076   4  8.0  83.0   24
c [block-4] scheduling all variables this time
c [block-4] scheduled 40052 variables 100%
c [block-4] limit of 2500000 steps penalty 2 = 2 + 0
c [block-4] fully completed blocked clause elimination
c [block-4] transition to [ all 0 rem 0 ] state
c [block-4] eliminated 0 blocked clauses
c [cce-4] 37104 variables 93% will be scheduled this time
c [cce-4] limit of 10000000 steps penalty 0 = 0 + 0
c [cce-4] 36361 variables 91% remain to be tried next time
c [cce-4] transition to [ all 0 rem 1 ] state
c [cce-4] eliminated 486 covered clauses
c E   16.1   40052   186004     21067    6327   6201  2076   4  8.0  83.0   20
c [elim-4] 23741 variables 59% will be scheduled this time
c [elim-4] scheduled 23741 variables 59%
c [elim-4] limit of 5000000 steps penalty 0 = 0 + 0
c [elim-4] 15340 variables 38% remain to be tried next time
c [elim-4] transition to [ all 0 rem 1 ] state
c [elim-4] eliminated 176 = 0% variables out of 40052
c 
c  seconds         irredundant          redundant clauses agility   height
c          variables clauses conflicts large binary ternary    glue         MB
c 
c e   17.1   39876   185981     21067    5688   5907  1984   4  8.0  83.0   20
c [phase-4] phase bias: 0 positive 0%, 0 negative 0%
c [simplification-4] removed 197 variables 0%
c [simplification-4] no reduction of limit increments
c [simplification-4] arithmetic increase of conflict limit interval by 10000
c [simplification-4] new irredundant limit 1962110
c [simplification-4] new conflict limit 46389
c [simplification-4] simplification penalty reduced to 0
c R   18.5   39876   185981     25977   10490   5918  2075   5  8.6  81.9   27
c -   18.7   39876   185981     26548    5534   5924  2100   6  8.6  81.1   24
c -   20.8   39876   185981     34341    6531   5982  2273   7  9.3  76.3   24
c -   23.1   39876   185981     42971    7509   6009  2380   7  9.3  71.5   24
c [simplification-5] limit hit at 46389 conflicts
c [simplification-5] no simplification penalty
c [ternres-5] limit 4000000 with penalty 0 = 0 + 0
c [ternres-5] all 39876 free variables schedulable
c [ternres-5] 109 ternary resolvents (2 bin, 107 trn)
c [ternres-5] fully completed ternary resolution
c T   24.1   39876   185981     46389   10859   6036  2527   5  9.2  69.3   25
c [gauss-5] limit 250000 penalty 3 = 3 + 0
c [gauss-5] extracted 137 xors of average arity 3.0
c [gauss-5] connected 411 occurrences of 381 variables (average 1.1)
c [gauss-5] limit 250000 penalty 3 = 3 + 0
c [gauss-5] fully completed
c [gauss-5] exported 0 unary, 0 binary and 0 ternary equations
c G   24.2   39876   185981     46389   10859   6036  2527   5  9.2  69.3   21
c d   24.2   39874   185981     46389   10859   6032  2527   5  9.2  69.3   21
c [basicprobe-5] limit 838153 penalty 2 = 2 + 0
c [basicprobe-5-0] 3977 probes remain 10% after last round
c [basicprobe-5-0] removed 0 variables, found 475 hbrs
c p   24.3   39874   185981     46389   10859   6507  2517   5  9.2  69.3   25
c [cgrclsr-5] limit 236379 based on 472759 irredundant literals
c [cgrclsr-5] all 39874 free variables schedulable
c [cgrclsr-5] fully completed congruence closure
c [lift-5] limit 125722 with penalty 4 = 4 + 0
c [lift-5] using 39797 probes 100%
c [lift-5] 39784 variables remain 100% (90 retained)
c [cliff-5] limit of 10000000 steps penalty 0 = 0 + 0
c [cliff-5] failed 1, lifted 0
c K   24.9   39873   185981     46389   10859   7539  2491   5  9.2  69.3   25
c [unhide-5] limit 1341045 with penalty 0 = 0 + 0
c [unhide-5-8] 0 units, 0 failed, 991 tauts, 0 hbrs, 22004 literals
c u   25.2   39873   185469     46389   10813   7223  2361   5  9.2  69.3   25
c [transred-9] limit 2000000 with penalty 0 = 0 + 0
c t   25.3   39873   185457     46389   10813   7216  2361   5  9.2  69.3   25
c [block-5] scheduling all variables this time
c [block-5] scheduled 39873 variables 100%
c [block-5] limit of 1250000 steps penalty 3 = 3 + 0
c [block-5] incomplete blocked clause elimination 2289 not tried 6%
c [block-5] transition to [ all 1 rem 1 ] state
c [block-5] eliminated 0 blocked clauses
c [cce-5] scheduling all variables this time
c [cce-5] limit of 5000000 steps penalty 0 = 0 + 0
c [cce-5] 36181 variables 91% remain to be tried next time
c [cce-5] transition to [ all 1 rem 1 ] state
c [cce-5] eliminated 13 covered clauses
c E   25.7   39873   185444     46389   10813   7363  2346   5  9.2  69.3   21
c [elim-5] scheduling all variables this time
c [elim-5] scheduled 39873 variables 100%
c [elim-5] limit of 5000000 steps penalty 0 = 0 + 0
c [elim-5] 15329 variables 38% remain to be tried next time
c [elim-5] transition to [ all 1 rem 1 ] state
c [elim-5] eliminated 368 = 1% variables out of 39873
c e   26.6   39505   185090     46389   10783   6799  2334   5  9.2  69.3   21
c [phase-5] phase bias: 0 positive 0%, 0 negative 0%
c [simplification-5] removed 371 variables 0%
c [simplification-5] no reduction of limit increments
c [simplification-5] arithmetic increase of conflict limit interval by 10000
c [simplification-5] new irredundant limit 1962110
c [simplification-5] new conflict limit 81711
c -   28.3   39505   185090     52765    8644   6803  2365   9  9.9  67.9   25
c R   29.5   39505   185090     57202   13055   6808  2386   5 10.2  67.9   27
c -   31.2   39505   185090     63251    9526   6824  2452   7 10.1  65.4   25
c -   34.3   39505   185090     74844   10509   6843  2540   7  9.7  61.2   24
c [simplification-6] limit hit at 81711 conflicts
c [simplification-6] no simplification penalty
c [ternres-6] limit 5504573 with penalty 0 = 0 + 0
c [ternres-6] all 39505 free variables schedulable
c [ternres-6] 64 ternary resolvents (0 bin, 64 trn)
c [ternres-6] fully completed ternary resolution
c T   36.0   39505   185090     81711   17332   6850  2638   7  9.7  59.4   26
c [gauss-6] limit 235655 based on 471310 irredundant literals
c [gauss-6] extracted 128 xors of average arity 3.0
c [gauss-6] connected 383 occurrences of 359 variables (average 1.1)
c [gauss-6] limit 235655 based on 471310 irredundant literals
c [gauss-6] fully completed
c [gauss-6] exported 0 unary, 0 binary and 0 ternary equations
c G   36.1   39505   185090     81711   17332   6850  2638   7  9.7  59.4   22
c d   36.2   39502   185090     81711   17331   6844  2637   7  9.7  59.4   22
c [basicprobe-6] limit 688071 penalty 3 = 3 + 0
c [basicprobe-6-0] 3781 probes remain 10% after last round
c [basicprobe-6-0] removed 0 variables, found 333 hbrs
c p   36.2   39502   185090     81711   17331   7177  2633   7  9.7  59.4   25
c [cgrclsr-6] limit 235655 based on 471310 irredundant literals
c [cgrclsr-6] all 39502 free variables schedulable
c [cgrclsr-6] fully completed congruence closure
c [lift-6] limit 206421 with penalty 4 = 4 + 0
c [lift-6] using 39412 probes 100%
c [lift-6] 39394 variables remain 100% (108 retained)
c [cliff-6] limit of 10000000 steps penalty 0 = 0 + 0
c [cliff-6] failed 0, lifted 0
c [unhide-6] limit 2201829 with penalty 0 = 0 + 0
c [unhide-6-10] 0 units, 0 failed, 601 tauts, 0 hbrs, 31896 literals
c u   37.2   39502   184903     81711   17309   7697  2542   7  9.7  59.4   25
c [transred-11] limit 2000000 with penalty 0 = 0 + 0
c 
c  seconds         irredundant          redundant clauses agility   height
c          variables clauses conflicts large binary ternary    glue         MB
c 
c t   37.3   39502   184889     81711   17309   7685  2542   7  9.7  59.4   25
c [block-6] 2289 variables 6% will be scheduled this time
c [block-6] scheduled 2289 variables 6%
c [block-6] limit of 688071 steps penalty 4 = 4 + 0
c [block-6] fully completed blocked clause elimination
c [block-6] transition to [ all 0 rem 0 ] state
c [block-6] eliminated 0 blocked clauses
c [cce-6] 36173 variables 92% will be scheduled this time
c [cce-6] limit of 10000000 steps penalty 0 = 0 + 0
c [cce-6] 35397 variables 90% remain to be tried next time
c [cce-6] transition to [ all 0 rem 1 ] state
c [cce-6] eliminated 510 covered clauses
c E   37.7   39501   184379     81711   17309   8205  2542   7  9.7  59.4   21
c [elim-6] 15328 variables 39% will be scheduled this time
c [elim-6] scheduled 15328 variables 39%
c [elim-6] limit of 5504573 steps penalty 0 = 0 + 0
c [elim-6] 6529 variables 17% remain to be tried next time
c [elim-6] transition to [ all 0 rem 1 ] state
c [elim-6] eliminated 109 = 0% variables out of 39501
c e   38.7   39392   184334     81711   12904   7684  2342   7  9.7  59.4   21
c [phase-6] phase bias: 0 positive 0%, 0 negative 0%
c [simplification-6] removed 113 variables 0%
c [simplification-6] no reduction of limit increments
c [simplification-6] arithmetic increase of conflict limit interval by 10000
c [simplification-6] new irredundant limit 1962110
c [simplification-6] new conflict limit 127033
c i   41.2   39391   184333     90140   21230   7702  2420   7  9.7  57.4   27
c -   41.7   39391   184333     91935   11506   7703  2433   8  9.7  57.0   25
c i   41.8   39390   184332     92410   11968   7708  2440   8  9.7  56.8   26
c -   45.6   39390   184332    105656   12536   7747  2586   6  9.6  54.3   25
c -   49.1   39390   184332    120307   13639   7758  2641   9  9.8  53.1   25
c R   50.6   39390   184332    124881   18193   7759  2660   8 10.0  53.1   31
c [simplification-7] limit hit at 127033 conflicts
c [simplification-7] no simplification penalty
c [ternres-7] limit 8261301 with penalty 0 = 0 + 0
c [ternres-7] all 39390 free variables schedulable
c [ternres-7] 137 ternary resolvents (1 bin, 136 trn)
c [ternres-7] fully completed ternary resolution
c T   51.2   39390   184332    127033   20321   7761  2819   8 10.0  52.7   31
c [gauss-7] limit 235153 based on 470306 irredundant literals
c [gauss-7] extracted 137 xors of average arity 3.0
c [gauss-7] connected 411 occurrences of 390 variables (average 1.1)
c [gauss-7] limit 235122 based on 470244 irredundant literals
c [gauss-7] fully completed
c [gauss-7] exported 0 unary, 0 binary and 0 ternary equations
c G   51.4   39390   184311    127033   20317   7736  2813   8 10.0  52.7   24
c d   51.5   39389   184309    127033   20317   7736  2813   8 10.0  52.7   24
c [basicprobe-7] limit 516331 penalty 4 = 4 + 0
c [basicprobe-7-0] 3646 probes remain 9% after last round
c [basicprobe-7-0] removed 0 variables, found 168 hbrs
c p   51.5   39389   184309    127033   20317   7904  2808   8 10.0  52.7   28
c [cgrclsr-7] limit 235120 based on 470240 irredundant literals
c [cgrclsr-7] all 39389 free variables schedulable
c [cgrclsr-7] fully completed congruence closure
c [cgrclsr-7] removed 1 variables
c C   51.6   39388   184309    127033   20317   7902  2807   8 10.0  52.7   24
c [lift-7] limit 309798 with penalty 4 = 4 + 0
c [lift-7] using 39280 probes 100%
c [lift-7] 39253 variables remain 100% (135 retained)
c [cliff-7] limit of 5000000 steps penalty 1 = 1 + 0
c [cliff-7] failed 0, lifted 0
c [unhide-7] limit 3304520 with penalty 0 = 0 + 0
c [unhide-7-13] 0 units, 0 failed, 548 tauts, 0 hbrs, 134103 literals
c u   52.8   39388   184051    127033   20278   8140  2740   8 10.0  52.7   28
c [transred-13] limit 2000000 with penalty 0 = 0 + 0
c t   52.9   39388   184046    127033   20278   8128  2740   8 10.0  52.7   28
c [block-7] scheduling all variables this time
c [block-7] scheduled 39388 variables 100%
c [block-7] limit of 1032662 steps penalty 4 = 4 + 0
c [block-7] incomplete blocked clause elimination 5282 not tried 13%
c [block-7] transition to [ all 1 rem 1 ] state
c [block-7] eliminated 0 blocked clauses
c [cce-7] scheduling all variables this time
c [cce-7] limit of 5000000 steps penalty 0 = 0 + 0
c [cce-7] 35284 variables 90% remain to be tried next time
c [cce-7] transition to [ all 1 rem 1 ] state
c [cce-7] eliminated 3 covered clauses
c E   53.3   39388   184043    127033   20278   8153  2729   8 10.0  52.7   23
c [elim-7] scheduling all variables this time
c [elim-7] scheduled 39388 variables 100%
c [elim-7] limit of 8261301 steps penalty 0 = 0 + 0
c [elim-7] 6527 variables 17% remain to be tried next time
c [elim-7] transition to [ all 1 rem 1 ] state
c [elim-7] eliminated 403 = 1% variables out of 39388
c e   54.8   38985   183672    127033   19003   7661  2701   8 10.0  52.7   23
c [phase-7] phase bias: 0 positive 0%, 0 negative 0%
c [simplification-7] removed 405 variables 1%
c [simplification-7] no reduction of limit increments
c [simplification-7] arithmetic increase of conflict limit interval by 10000
c [simplification-7] new irredundant limit 1962110
c [simplification-7] new conflict limit 182355
c -   57.9   38985   183672    137168   14504   7689  2800   6  9.9  51.0   25
c i   58.9   38984   183671    140705   17973   7698  2856   6  9.8  50.3   26
c i   62.0   38983   183670    151844   28972   7749  2941   6  9.9  49.0   27
c i   62.6   38818   183669    153665   30757   7758  2966   6  9.8  48.7   29
c -   62.7   38818   183669    153917   15501   7760  2970   5  9.8  48.6   25
c 
c  seconds         irredundant          redundant clauses agility   height
c          variables clauses conflicts large binary ternary    glue         MB
c 
c i   63.2   38817   183668    155720   17260   7775  2998   6  9.8  48.4   26
c i   63.5   38816   183667    157001   18519   7783  3011   7  9.8  48.2   26
c i   64.1   38815   183666    158887   20372   7793  3032   6  9.8  48.0   26
c i   64.5   38814   183665    160150   21606   7801  3051   6  9.8  47.8   26
c i   64.7   38813   183664    160832   22261   7811  3066   5  9.7  47.7   27
c i   65.0   38787   183663    161905   23327   7814  3069   7  9.7  47.6   27
c i   65.2   38786   183662    163062   24468   7816  3081   6  9.7  47.4   27
c i   65.4   38785   183661    163586   24969   7821  3098   6  9.7  47.4   27
c i   65.7   38778   183660    164544   25897   7830  3117   7  9.7  47.2   27
c i   65.8   38777   183659    165034   26361   7838  3132   7  9.7  47.2   27
c i   66.3   38776   183658    166477   27766   7851  3155   6  9.7  47.0   27
c i   66.4   38742   183657    166796   28062   7864  3164   7  9.7  46.9   27
c i   66.7   38674   183656    167978   29217   7871  3183   9  9.7  46.8   28
c i   67.0   38557   183655    168854   30063   7884  3198   7  9.7  46.7   28
c i   67.2   38556   183654    169484   30673   7891  3210   6  9.6  46.6   28
c -   68.0   38548   183654    171866   16503   7902  3249   6  9.6  46.3   25
c i   68.0   38547   183653    171991   16627   7902  3249   6  9.6  46.3   26
c i   68.0   38546   183652    172078   16709   7903  3252   6  9.6  46.3   26
c i   68.1   38545   183651    172180   16809   7904  3252   6  9.6  46.3   26
c i   68.3   38544   183650    173203   17804   7911  3272   9  9.6  46.2   26
c i   70.0   38543   183650    179662   24224   7921  3299   8  9.6  45.8   29
c i   70.2   38530   183649    180402   24943   7925  3315   6  9.6  45.8   29
c i   70.2   38458   183648    180407   24944   7928  3315   6  9.6  45.8   29
c 
c  seconds         irredundant          redundant clauses agility   height
c          variables clauses conflicts large binary ternary    glue         MB
c 
c i   70.2   38257   183648    180551   25068   7932  3329   6  9.6  45.7   29
c i   70.2   37453   183648    180557   25070   7932  3331   6  9.6  45.7   29
c 0   70.2   37330   183648    180557   25070   7932  3331   6  9.6  45.7   29
c 
c  seconds         irredundant          redundant clauses agility   height
c          variables clauses conflicts large binary ternary    glue         MB
c 
c blkd: 7 bces, 4600 removed, 3239305 resolutions, 8848515 steps
c blkd: 4600 blocking literals 1%, 0 pure
c cces: 7 cces, 1752 eliminated, 1752 ate 100%, 0 abce 0%
c cces: 32022 probed, 18 lifted, 29 failed
c clff: 7 cliffs, 0 lifted, 14 failed
c clff: 31908 decisions, 65020508 steps
c clls: 1 sat, 0 simp, 0 freeze, 0 melt
c clls: 1889503 add, 0 assume,, 0 deref, 0 failed
c clls: 0 cassume, 0 mosat
c coll: 45 gcs, 0 rescored clauses
c cgrs: 7 count, 1184881 esteps, 287181 csteps
c cgrs: 1 eqs, 0 units
c cgrs: 0 matched (0 ands 0%, 0 xors 0%, 0 ites 0%)
c cgrs: 0 simplified (0 ands 0%, 0 xors 0%, 0 ites 0%)
c cgrs: 4799 extracted (4264 ands 89%, 535 xors 11%, 0 ites 0%)
c dcps: 8 decompositions, 58593 equivalent 29%
c decs: 533403 decision, 541 random 0.101%
c decs: 124932 flipped 23.422% (in 829 phases)
c elms: 7 elims, 9249 eliminated 5%
c elms: 9249 small 100%, 0 large 0%
c elms: 81373 tried small, 9249 succeeded 11%, 72124 failed 89%
c elms: 22 subsumed, 0 strengthened, 0 blocked
c elms: 1265143 copies, 859070 resolutions, 2520216 ipos
c elms: 165 subchks, 0 strchks
c frcs: 0 computed, 11.4 - 88.6 average min-cut range
c gaus: 7 extractions, 178073 extracted, 2.0 size, 3 max
c gaus: exported 0 units, 3 binary and 0 ternary equations
c gaus: 0 gc, 12441884 steps, 6220942 extr 50%, 2646303 elim 21%
c glue: 9.6 avg, 3.3 scaled avg
c glue: 80 maxredglue=15 (0%)
c lift: 7 phases, 844 probed (282 level1 33%, 562 level2 67%)
c lift: 0 units, 0 equivalences, 4 implications
c hbrs: 20632 hbrs = 20632 trn 100% + 0 lrg 0%, 149 sub 1%
c lrnd: 180288 clauses, 89450 uips 50%, 41.2 length, 9.6 glue
c ints: 6142 luby (1238034 steps), 0 inout (0 steps)
c mins: 7434152 learned lits, 36% minimized
c move: moved 6352, 1752 binary 28%, 4600 ternary 72%
c otfs: str 2259 dyn (2082 red, 177 irr) 269 drv 12%, 1990 rst 88%
c otfs: sub 9 dyn (9 red, 0 irr)
c phas: 7 computed, 12017 set, 1874 pos (16%), 10143 neg (84%)
c prbs: 7 basic, 3318 probed, 3 failed, 0 lifted
c prps: 187736438 props, 307 props/dec
c prps: 87% srch, 13% simp, 0% lkhd
c psns: 33561535 searches, 4748519 hits, 14% hit rate
c queu: 1951398 new, 699299 del, 120 maximum priority
c queu: 1252045 merged, 1246372 collected, 129 gcs
c queu: 182547 deprioritized, 53.2 lines on average
c reds: 17 count, 0 reset, 17 acts 100%, 0 exp 0%
c reds: 17 arithmetic 100%, 17 double 100%
c rmbd: 86 removed, 16 red 19%
c rsts: 6040 restarts 98%, 101 skipped 2%
c rsts: 992 kept 16.4% average 28.2%
c simp: 7 count (0 ilim 0%, 0 plim 0%, 7 clim 100%)
c trnr: 7 count, 8 bin, 859 trn, 22031387 steps
c tops: 94798 fixed 47%, 29 iterations
c trds: 14 transitive reductions, 77 removed, 0 failed
c trds: 8038 nodes, 11334 edges, 7147705 steps
c unhd: 7 count, 13 rounds, 14007592 steps
c unhd: 30 non-trivial sccs of average size 2.0
c unhd: 0 units, 0 bin, 0 trn, 0 lrg
c unhd: 2 failed, 2 stamp, 0 lits, 0 bin, 0 trn, 0 lrg
c unhd: 24648 tauts, 11 bin 0%, 1866 trn 8%, 221 lrg 1%
c unhd: 24648 tauts, 22550 stamp 91%, 4876 red 20%
c unhd: 0 hbrs, 0 trn 0%, 0 lrg 0%, 0 red 0%
c unhd: 199760 strd, 0 bin 0%, 105 trn 0%, 199655 lrg 100%, 199715 red 100%
c vars: 37330 remaining 19% and 162640 removed 81% out of 199970
c vars: 94798 fixed 47%, 9249 eliminated 5%, 58593 equivalent 29%
c vsts: 1268318938 visits, 92% srch, 8% simp, 0% lkhd
c vsts: 7.1 search visits per propagation 6451.6 per conflict
c wchs: 228931815 pushed, 11272084 enlarged, 74 defrags
c 
c scaledglue  added       reduced       forcing      resolved     conflicts
c 
c all    176289 100    144442 100   4100161 100   1193297 100     64286 100
c 
c  0          0   0         0   0         0   0         0   0         0   0 
c  1        429   0       272   0     62801   2      9738   1       404   1 
c  2      34522  20     24583  17   2510361  61<   529144  44     24548  38 
c  3      80569  46<    65313  45<  1295861  32    483216  40<    28423  44<
c  4      39243  22     34669  24    172462   4    118945  10      7531  12 
c  5      14414   8     13125   9     42263   1     35776   3      2276   4 
c  6       4819   3      4408   3     11151   0     11281   1       734   1 
c  7       1398   1      1292   1      3145   0      3192   0       188   0 
c  8        403   0       396   0       822   0       854   0        53   0 
c  9        106   0        96   0       245   0       236   0        15   0 
c 10         93   0        86   0       189   0       227   0        39   0 
c 11         29   0        29   0        77   0        54   0         3   0 
c 12         19   0        18   0       187   0        53   0         3   0 
c 13         48   0        43   0       201   0       199   0        36   0 
c 14        117   0       112   0       316   0       335   0        33   0 
c 15         80   0         0   0        80   0        47   0         0   0 
c 
c avg             3.3           3.4           2.4           2.8           2.9
c std             1.1           1.1           0.7           0.9           1.0
c 
c 533403 decisions, 180557 conflicts, 2570.4 conflicts/sec
c 187736438 propagations, 2.7 megaprops/sec
c 70.2 seconds, 45.2 MB
c 
c    9.793  14% analysis
c    0.832   1% block
c    2.024   3% bump
c    0.000   0% card
c    2.328   3% cce
c    2.584   4% cliff
c    0.012   0% cutwidth
c    0.212   0% decide
c    0.000   0% force
c    1.832   3% gc
c    0.728   1% cgrclsr
c    0.704   1% decomp
c    0.460   1% defrag
c    7.272  10% elim
c    1.232   2% gauss
c    0.596   1% lift
c    2.364   3% mincls
c    0.148   0% phase
c    0.372   1% probe
c    0.148   0% reduce
c    0.600   1% restart
c    0.300   0% ternres
c    0.408   1% transred
c    2.172   3% unhide
c ==================================
c    0.016   0% preprocessing     0%
c   19.881  28% inprocessing    100%
c ==================================
c   19.897  28% simplifying
c    0.000   0% lookahead
c   50.347  72% search
c ==================================
c   70.244 100% all
c
s UNSATISFIABLE
